c turning on binary mode checking
c parsing input formula with 202048 variables and 780985 clauses
c finished parsing, read 17173818 bytes from proof file
c detected empty clause; start verification via backward checking
c 18810 of 780985 clauses in core                            
c 25229 of 457169 lemmas in core using 195111 resolution steps
c 0 RAT lemmas in core; 1446 redundant literals in core lemmas
s VERIFIED
c verification time: 2.431 seconds
